c read Graph
c width = 311
c time = 432 ms
c width = 27
c time = 1042 ms
c width = 25
c time = 1395 ms
c width = 24
c time = 6527 ms
c width = 23
c time = 8024 ms
c width = 22
c time = 8081 ms
c width = 21
c time = 14538 ms
c width = 20
c time = 25593 ms
c width = 19
c time = 35789 ms
c width = 18
c time = 45095 ms
c width = 18
c time = 47272 ms
s td 284 19 324
b 1 1 2 19
b 2 2 3 19 20
b 3 16 17 35 36
b 4 3 19 20 37
b 5 16 35 36 54
b 6 271 289 290 308
b 7 288 305 306 323
b 8 271 290 308 309
b 9 288 305 322 323
b 10 3 4 5 22
b 11 3 5 21 22 38 55
b 12 5 21 22 38 40 55 57
b 13 5 22 38 40 55 57 74
b 14 5 22 40 55 57 74 91
b 15 5 22 24 40 41 57 74 91
b 16 5 24 40 41 57 59 74 76 91
b 17 5 24 41 57 59 74 76 91 93
b 18 5 24 41 59 74 76 91 93 110
b 19 5 24 41 43 59 60 76 91 93 110
b 20 24 41 42 43 60
b 21 5 24 43 59 60 76 79 91 93 97 110 112 114 131
b 22 59 60 76 79 93 95 97 112 114 131
b 23 95 112 113 114 131
b 24 76 93 94 95 112
b 25 59 60 76 78 79 95 97 114
b 26 59 76 77 78 95
b 27 78 95 96 97 114
b 28 5 24 43 60 62 79 91 93 97 110 112 114 131
b 29 43 60 61 62 79
b 30 5 24 43 62 79 91 93 97 110 112 114 131 148 163 165 182
b 31 91 93 110 112 129 131 148 163 165 182
b 32 91 110 129 146 148 163 165 182
b 33 129 146 147 148 165
b 34 146 163 164 165 182
b 35 91 110 127 129 146 163
b 36 127 145 146 163
b 37 91 109 110 127
b 38 110 127 128 129 146
b 39 93 110 111 112 129
b 40 112 129 130 131 148
b 41 5 10 24 28 43 45 62 79 97 114 131 148 163 165 182
b 42 10 28 45 47 62 66 79 83 97 100 114 116 117 131 148 163 165 182
b 43 28 45 47 62 66 79 83 97 100 114 116 117 131 148 163 165 182
b 44 10 11 28 47 66 83 97 100 114 116 117 131 148 163 165 182
b 45 11 12 28 29 47 66 83 97 100 114 116 117 131 148 163 165 182
b 46 12 13 28 29 30 47 66 83 97 100 114 116 117 131 148 163 165 182
b 47 13 30 31 47 48 66 83 97 100 114 116 117 131 148 163 165 182
b 48 13 31 32 47 48 49 66 83 97 100 114 116 117 131 148 163 165 182
b 49 13 32 49 51 66 70 83 89 97 100 108 114 116 117 131 148 163 165 182
b 50 32 49 51 66 68 70 83 89 97 100 108 114 116 117 131 148 163 165 182
b 51 49 51 66 68 70 83 87 89 97 100 108 114 116 117 131 148 163 165 182
b 52 49 66 68 70 83 87 89 97 100 106 108 114 116 117 131 148 163 165 182
b 53 70 87 88 89 106
b 54 49 66 68 83 85 87 89 97 100 106 108 114 116 117 131 148 163 165 182
b 55 66 68 83 85 87 89 97 100 104 106 108 114 116 117 131 148 163 165 182
b 56 66 83 84 85 87 89 97 100 104 106 108 114 116 117 131 148 163 165 182
b 57 83 84 85 87 89 97 100 104 106 108 114 116 117 123 131 148 163 165 182
b 58 83 84 85 89 97 100 104 106 108 114 116 117 123 125 131 148 163 165 182
b 59 83 84 85 97 100 104 106 108 114 115 116 117 123 125 131 148 163 165 182
b 60 83 84 85 100 104 106 108 114 115 116 117 123 125 131 142 148 163 165 182
b 61 106 123 124 125 142
b 62 83 84 85 100 102 104 108 114 115 116 117 123 125 131 142 148 163 165 182
b 63 83 85 100 102 104 108 114 115 116 117 119 123 125 131 142 148 163 165 182
b 64 85 100 102 104 108 114 115 116 117 119 121 123 125 131 142 148 163 165 182
b 65 100 102 104 108 114 115 116 117 119 121 123 125 131 136 142 148 163 165 182
b 66 102 104 108 114 115 116 117 119 120 121 123 125 131 136 142 148 163 165 182
b 67 104 108 114 115 116 117 119 120 121 123 125 131 136 140 142 148 163 165 182
b 68 108 114 115 116 117 119 120 121 123 125 131 136 140 142 144 148 163 165 182
b 69 114 115 116 117 119 120 121 123 125 131 132 136 140 142 144 148 163 165 182
b 70 115 116 117 119 120 121 123 125 131 132 133 136 140 142 144 148 163 165 182
b 71 116 117 119 120 121 123 125 131 132 133 135 136 140 142 144 148 163 165 182
b 72 116 119 120 121 123 125 131 132 133 135 136 140 142 144 148 152 163 165 182
b 73 119 120 121 123 125 131 132 133 135 136 138 140 142 144 148 152 163 165 182
b 74 119 121 123 125 131 132 133 135 136 138 140 142 144 148 152 157 163 165 182
b 75 119 123 125 131 132 133 135 136 138 140 142 144 148 152 157 161 163 165 182
b 76 119 123 131 132 133 135 136 138 140 142 144 148 152 157 161 163 165 180 182
b 77 144 161 162 180
b 78 119 123 131 132 133 135 136 137 138 140 142 148 152 157 161 163 165 180 182
b 79 123 131 132 133 135 136 137 138 140 142 148 149 152 157 161 163 165 180 182
b 80 123 132 133 135 136 137 138 140 142 148 149 150 152 157 161 163 165 180 182
b 81 123 133 135 136 137 138 140 142 148 149 150 151 152 157 161 163 165 180 182
b 82 123 135 136 137 138 140 142 148 149 150 151 152 153 157 161 163 165 180 182
b 83 123 136 137 138 140 142 148 149 150 151 152 153 154 157 161 163 165 180 182
b 84 123 137 138 140 142 148 149 150 151 152 153 154 155 157 161 163 165 180 182
b 85 123 138 140 142 148 149 150 151 152 153 154 155 157 161 163 165 171 180 182
b 86 123 138 140 142 148 149 150 151 152 154 155 156 157 161 163 165 171 180 182
b 87 123 140 142 148 149 150 151 152 154 155 156 157 161 163 165 166 171 180 182
b 88 123 140 142 149 150 151 152 154 155 156 157 161 163 165 166 167 171 180 182
b 89 123 140 142 150 151 152 154 155 156 157 161 163 165 166 167 168 171 180 182
b 90 123 140 142 151 152 154 155 156 157 161 163 165 166 167 168 169 171 180 182
b 91 123 140 142 152 154 155 156 157 161 163 165 166 167 168 169 170 171 180 182
b 92 123 140 142 154 155 156 157 161 163 165 166 167 168 169 170 171 172 180 182
b 93 123 140 142 155 156 157 161 163 165 166 167 168 169 170 171 172 173 180 182
b 94 123 140 142 156 157 161 163 165 166 167 168 169 170 171 172 173 174 180 182
b 95 123 140 142 157 161 163 165 166 167 168 169 170 171 172 173 174 180 181 182
b 96 123 140 142 157 161 165 166 167 168 169 170 171 172 173 174 180 181 182 183
b 97 123 140 142 157 161 166 167 168 169 170 171 172 173 174 180 181 182 183 184
b 98 123 140 142 157 161 167 168 169 170 171 172 173 174 180 181 182 183 184 185
b 99 123 140 142 157 161 168 169 170 171 172 173 174 180 181 182 183 184 185 186
b 100 123 140 142 157 161 169 170 171 172 173 174 180 181 182 183 184 185 186 187
b 101 123 140 142 157 161 170 171 172 173 174 180 181 182 183 184 185 186 187 188
b 102 123 140 142 157 161 171 172 173 174 180 181 182 183 184 185 186 187 188 189
b 103 123 140 142 157 161 172 173 174 180 181 182 183 184 185 186 187 188 189 190
b 104 123 140 142 157 161 173 174 180 181 182 183 184 185 186 187 188 189 190 191
b 105 123 140 142 157 161 174 180 181 182 183 184 185 186 187 188 189 190 191 199
b 106 123 140 142 157 161 174 180 182 183 184 185 186 187 188 189 190 191 199 200
b 107 123 140 142 157 161 174 180 183 184 185 186 187 188 189 190 191 199 200 201
b 108 123 140 142 157 161 174 180 184 185 186 187 188 189 190 191 199 200 201 202
b 109 123 140 142 157 161 174 180 185 186 187 188 189 190 191 199 200 201 202 203
b 110 123 140 142 157 161 174 180 186 187 188 189 190 191 199 200 201 202 203 204
b 111 123 140 142 157 161 174 180 187 188 189 190 191 199 200 201 202 203 204 205
b 112 123 140 142 157 161 174 180 188 189 190 191 199 200 201 202 203 204 205 206
b 113 123 140 142 157 161 174 180 189 190 191 199 200 201 202 203 204 205 206 207
b 114 123 140 142 157 161 174 180 190 191 199 200 201 202 203 204 205 206 207 208
b 115 123 140 142 157 161 174 180 191 199 200 201 202 203 204 205 206 207 208 217
b 116 123 140 142 157 161 174 180 191 200 201 202 203 204 205 206 207 208 217 218
b 117 123 140 142 157 161 174 180 191 201 202 203 204 205 206 207 208 217 218 219
b 118 123 140 142 157 161 174 180 191 202 203 204 205 206 207 208 217 218 219 220
b 119 123 140 142 157 161 174 180 191 203 204 205 206 207 208 217 218 219 220 221
b 120 123 140 142 157 161 174 180 191 204 205 206 207 208 217 218 219 220 221 222
b 121 123 140 142 157 161 174 180 191 205 206 207 208 217 218 219 220 221 222 223
b 122 123 140 142 157 161 174 180 191 206 207 208 217 218 219 220 221 222 223 224
b 123 123 140 142 157 161 174 180 191 207 208 217 218 219 220 221 222 223 224 225
b 124 123 140 142 157 161 174 180 191 208 217 218 219 220 221 222 223 224 225 235
b 125 123 140 142 157 161 174 180 191 208 218 219 220 221 222 223 224 225 235 236
b 126 123 140 142 157 161 174 180 191 208 219 220 221 222 223 224 225 235 236 237
b 127 123 140 142 157 161 174 180 191 208 220 221 222 223 224 225 235 236 237 238
b 128 123 140 142 157 161 174 180 191 208 221 222 223 224 225 235 236 237 238 239
b 129 123 140 142 157 161 174 180 191 208 222 223 224 225 235 236 237 238 239 240
b 130 123 140 142 157 161 174 180 191 208 223 224 225 235 236 237 238 239 240 241
b 131 123 140 142 157 161 174 180 191 208 224 225 235 236 237 238 239 240 241 242
b 132 123 140 142 157 161 174 180 191 208 225 235 236 237 238 239 240 241 242 254
b 133 123 140 142 157 161 174 180 191 208 225 235 237 238 239 240 241 242 254 255
b 134 123 140 142 157 161 174 180 191 208 225 235 238 239 240 241 242 254 255 256
b 135 123 140 142 157 161 174 180 191 208 225 235 239 240 241 242 254 255 256 257
b 136 123 140 142 157 161 174 180 191 208 225 235 240 241 242 254 255 256 257 258
b 137 123 140 142 157 161 174 180 191 208 225 235 241 242 254 255 256 257 258 259
b 138 123 140 142 157 161 174 180 191 208 225 235 242 254 255 256 257 258 259 274
b 139 123 140 142 157 161 174 180 191 208 225 235 242 254 255 257 258 259 274 275
b 140 123 140 142 157 161 174 180 191 208 225 235 242 254 255 258 259 274 275 276
b 141 123 140 142 157 161 174 180 191 208 225 235 242 254 255 259 274 275 276 293
b 142 123 140 142 157 161 174 180 191 208 225 235 242 254 255 259 274 276 293 312
b 143 123 140 142 157 161 174 180 191 192 208 209 225 242 255 259 274 276 293 312
b 144 123 140 142 157 161 174 180 192 208 209 225 242 255 259 274 276 293 295 312
b 145 276 293 294 295 312
b 146 123 140 142 157 161 174 180 192 208 209 225 242 259 261 276 278 295 312
b 147 123 140 142 157 161 174 180 192 208 209 225 242 261 278 295 297 312 316
b 148 278 295 297 312 314 316
b 149 278 295 296 297 314
b 150 297 314 315 316
b 151 295 312 313 314
b 152 123 140 142 157 161 174 180 192 208 209 225 242 261 278 280 297 312 316
b 153 261 278 279 280 297
b 154 123 140 142 157 161 174 180 192 208 209 225 242 261 280 297 299 312 316
b 155 280 297 298 299 316
b 156 259 276 277 278 295
b 157 242 259 260 261 278
b 158 235 254 255 274 293 310 312
b 159 235 254 255 274 291 293 310
b 160 274 291 292 293 310
b 161 235 254 255 272 274 291 310
b 162 255 272 273 274 291
b 163 235 254 271 272 291 310
b 164 235 253 254 271
b 165 271 272 291 309 310
b 166 271 272 290 291 309
b 167 293 310 311 312
b 168 125 142 143 144 161
b 169 121 138 139 140 157
b 170 116 133 134 135 152
b 171 108 125 126 144
b 172 104 121 122 123 140
b 173 100 117 118 119 136
b 174 85 102 103 104 121
b 175 83 100 101 102 119
b 176 89 106 107 108 125
b 177 87 104 105 106 123
b 178 68 85 86 87 104
b 179 49 66 67 68 85
b 180 51 68 69 70 87
b 181 32 49 50 51 68
b 182 13 32 51 70 72 89 108
b 183 13 15 32 51 70 72 89
b 184 13 14 15 32
b 185 15 32 51 53 70 72 89
b 186 15 32 34 51 53 70 72
b 187 34 51 52 53 70
b 188 15 34 53 54 72
b 189 15 16 34 53 54
b 190 16 34 35 53 54
b 191 15 32 33 34 51
b 192 53 70 71 72 89
b 193 72 89 90 108
b 194 28 45 47 62 66 79 81 83 97 100 116 117
b 195 62 79 81 97 98 100 116 117
b 196 62 79 80 81 98
b 197 81 98 99 100 117
b 198 28 45 47 62 64 66 81 83 100
b 199 47 64 65 66 83
b 200 28 45 46 47 64
b 201 45 62 63 64 81
b 202 64 81 82 83 100
b 203 5 9 10 24 28 43 45 62
b 204 5 9 24 26 28 43 45 62
b 205 5 7 9 24 26 43
b 206 5 6 7 24
b 207 7 8 9 26
b 208 7 24 25 26 43
b 209 26 43 44 45 62
b 210 9 26 27 28 45
b 211 74 91 92 93 110
b 212 57 74 75 76 93
b 213 40 57 58 59 76
b 214 5 22 23 24 41
b 215 55 73 74 91
b 216 38 55 56 57 74
b 217 21 38 39 40 57
b 218 3 21 37 38 55
b 219 3 20 21 37 38
b 220 192 209 210 211 228
b 221 161 178 180 195 211 212 228 246 263 265 282 299 316
b 222 161 178 180 195 211 212 228 246 263 280 282 299 316
b 223 123 140 142 157 161 174 178 180 192 195 211 212 228 246 263 280 299 316
b 224 123 140 142 157 161 174 180 192 208 209 225 228 242 246 261 263 280 299 316
b 225 123 140 142 157 161 174 180 192 209 211 228 246 263 280 299 316
b 226 123 140 142 157 161 174 180 192 209 225 228 242 246 261 263 280 299 316
b 227 123 140 142 157 161 174 176 178 192 195 211 212
b 228 123 140 142 157 159 161 176 178 195
b 229 159 176 177 178 195
b 230 140 157 158 159 176
b 231 142 159 160 161 178
b 232 123 140 141 142 159
b 233 157 174 176 192 193 195 211 212
b 234 157 174 175 176 193
b 235 176 193 194 195 212
b 236 161 178 180 195 211 212 228 230 233 246 249 250 252 265 282 299 316
b 237 161 178 180 195 212 214 230 233 249 250 252
b 238 161 178 180 195 197 214 233 252
b 239 178 195 196 197 214
b 240 161 178 179 180 197
b 241 180 197 214 216 233 252
b 242 180 197 198 216
b 243 216 233 234 252
b 244 197 214 215 216 233
b 245 195 212 214 230 231 233 249 250
b 246 195 212 213 214 231
b 247 214 231 232 233 250
b 248 211 228 230 233 246 249 250 252 265 266 282 299 316
b 249 211 228 230 246 247 249 265 266
b 250 230 247 248 249 266
b 251 211 228 229 230 247
b 252 233 249 250 252 265 266 282 299 301 316 320
b 253 282 299 301 316 318 320
b 254 299 316 317 318
b 255 301 318 319 320
b 256 282 299 300 301 318
b 257 233 249 250 252 265 266 282 284 301 320
b 258 265 282 283 284 301
b 259 233 249 250 252 266 284 301 303 320
b 260 233 249 250 252 266 284 285 303 320
b 261 233 249 250 252 266 268 285 303 320
b 262 233 250 252 268 269 285 303 320
b 263 233 250 251 252 269
b 264 252 268 269 285 303 320 322
b 265 303 320 321 322
b 266 252 268 269 285 303 304 322
b 267 252 268 269 285 287 304 322
b 268 268 285 286 287 304
b 269 252 269 287 288 304 322
b 270 252 269 270 288
b 271 287 288 304 305 322
b 272 249 266 267 268 285
b 273 284 301 302 303 320
b 274 246 263 264 265 282
b 275 263 280 281 282 299
b 276 208 209 225 228 242 244 246 261 263 280
b 277 208 209 225 227 228 244 246 263
b 278 227 244 245 246 263
b 279 208 225 226 227 244
b 280 244 261 262 263 280
b 281 225 242 243 244 261
b 282 306 323 324
b 283 289 307 308
b 284 17 18 36
1 2
2 4
3 284
3 5
4 219
5 190
6 283
6 8
7 282
7 9
8 166
9 271
10 11
11 218
11 12
12 217
12 13
13 216
13 14
14 215
14 15
15 214
15 16
16 213
16 17
17 212
17 18
18 211
18 19
19 21
19 20
21 28
21 22
22 24
22 23
22 25
25 26
25 27
28 30
28 29
30 41
30 31
31 32
31 39
31 40
32 34
32 35
32 33
35 37
35 38
35 36
41 203
41 42
42 194
42 44
42 43
44 45
45 46
46 47
47 48
48 49
49 182
49 50
50 181
50 51
51 180
51 52
52 54
52 53
54 179
54 55
55 178
55 56
56 57
57 177
57 58
58 176
58 59
59 60
60 62
60 61
62 63
63 175
63 64
64 174
64 65
65 173
65 66
66 67
67 172
67 68
68 171
68 69
69 70
70 71
71 72
72 170
72 73
73 74
74 169
74 75
75 168
75 76
76 78
76 77
78 79
79 80
80 81
81 82
82 83
83 84
84 85
85 86
86 87
87 88
88 89
89 90
90 91
91 92
92 93
93 94
94 95
95 96
96 97
97 98
98 99
99 100
100 101
101 102
102 103
103 104
104 105
105 106
106 107
107 108
108 109
109 110
110 111
111 112
112 113
113 114
114 115
115 116
116 117
117 118
118 119
119 120
120 121
121 122
122 123
123 124
124 125
125 126
126 127
127 128
128 129
129 130
130 131
131 132
132 133
133 134
134 135
135 136
136 137
137 138
138 139
139 140
140 141
141 142
142 158
142 143
143 144
144 146
144 145
146 156
146 157
146 147
147 152
147 148
148 149
148 150
148 151
152 154
152 153
154 224
154 155
158 167
158 159
159 160
159 161
161 162
161 163
163 164
163 165
165 166
182 183
182 193
183 184
183 185
185 186
185 192
186 188
186 191
186 187
188 189
189 190
194 195
194 198
195 197
195 196
198 200
198 201
198 202
198 199
203 204
204 205
204 209
204 210
205 206
205 207
205 208
218 219
220 225
221 236
221 274
221 222
222 275
222 223
223 227
223 225
224 276
224 226
225 226
227 233
227 228
228 229
228 230
228 231
228 232
233 234
233 235
236 237
236 248
237 238
237 245
238 240
238 239
238 241
241 242
241 243
241 244
245 246
245 247
248 249
248 252
249 251
249 250
252 253
252 257
253 254
253 255
253 256
257 258
257 259
259 273
259 260
260 261
261 272
261 262
262 263
262 264
264 265
264 266
266 267
267 268
267 269
269 270
269 271
276 280
276 281
276 277
277 278
277 279
